116056
117116
116661
116741
116353
116525
115741
114199
115247
116947
218104
214739
215854
217836
217910
215762
215919
216336
217290
217340
301675
300572
304995
305087
304404
304462
303233
306944
307007
303199
